36
22
0 23 24 26 31 34 35
1 23 30 33 34
2 22 23 26 30 33 34
3 23 26 30 34
4 22 23 27 28 29 30 32 33 34
5 23 26 27 31 32 33 34 35
6 30 31 33 34 35
7 23 25 27
8 23 27 28 31 35
9 23 26 27 30 31 32 34
10 26 27 30 35
11 27 29 30 33
12 23 25 26 32 34 35
13 23 24 26 27 30 32 34 35
14 23 27 31 33 34
15 23 27 32 34 35
16 32 33
17 30 31
18 25
19
20
21 30
